p tdp 66 65
56 16
10 55
5 49
22 27
25 58
61 35
56 4
61 50
62 66
15 32
57 27
39 24
44 42
54 30
11 57
18 33
59 5
17 6
30 11
63 56
25 48
28 29
17 8
66 64
62 32
47 31
17 40
43 26
34 41
12 28
19 20
60 19
2 55
60 52
23 7
42 54
38 51
37 36
45 23
25 9
35 13
18 45
36 15
53 40
46 61
41 48
36 65
47 18
21 39
58 44
31 52
35 40
46 45
16 43
2 1
59 13
51 42
29 14
2 43
15 3
44 32
40 39
41 61
25 4
39 29
